outputs/case_347.model.txt
severely_insufficient_measures_executed = True
capital_adequacy_ratio = 40
improvement_plan_submitted = False
net_worth_ratio = 1
net_worth = -100
significantly_insufficient_measures_executed = False
improvement_plan_executed = False
capital_severely_insufficient_measures_ok = True
capital_level = 4
capital_insufficient_measures_ok = False
penalty = False
capital_level_lowest = 4
capital_significantly_insufficient_measures_ok = False